182
Lattice="28.4000 0 0 0 28.1495 0 0 0 25.3069" Origin="-14.2000 -14.0747 -17.3069" Properties=species:S:1:pos:R:3
Fe -6.20000 2.02491 -9.30689
Fe -3.72000 2.02491 -9.30689
Fe -6.20000 4.04982 -7.87506
Fe -1.24000 2.02491 -9.30689
Fe 1.24000 2.02491 -9.30689
Fe -2.48000 6.07473 -8.59097
Fe -3.72000 4.04982 -7.87506
Fe -1.24000 4.04982 -7.87506
Fe -4.96000 6.07473 -8.59097
Fe -6.20000 6.07473 -6.44323
Fe -3.72000 6.07473 -6.44323
Fe 3.72000 2.02491 -9.30689
Fe 6.20000 2.02491 -9.30689
Fe 2.48000 6.07473 -8.59097
Fe 1.24000 4.04982 -7.87506
Fe 3.72000 4.04982 -7.87506
Fe 0.00000 6.07473 -8.59097
Fe -1.24000 6.07473 -6.44323
Fe 1.24000 6.07473 -6.44323
Fe 6.20000 4.04982 -7.87506
Fe 4.96000 6.07473 -8.59097
Fe 3.72000 6.07473 -6.44323
Fe 6.20000 6.07473 -6.44323
Fe -6.20000 -4.04982 -9.30689
Fe -3.72000 -4.04982 -9.30689
Fe -6.20000 -2.02491 -7.87506
Fe -1.24000 -4.04982 -9.30689
Fe 1.24000 -4.04982 -9.30689
Fe -2.48000 0.00000 -8.59097
Fe -3.72000 -2.02491 -7.87506
Fe -1.24000 -2.02491 -7.87506
Fe -4.96000 0.00000 -8.59097
Fe -4.96000 2.02491 -7.15914
Fe -6.20000 0.00000 -6.44323
Fe -3.72000 -0.00000 -6.44323
Fe -6.20000 2.02491 -5.01140
Fe 3.72000 -4.04982 -9.30689
Fe 6.20000 -4.04982 -9.30689
Fe 2.48000 0.00000 -8.59097
Fe 1.24000 -2.02491 -7.87506
Fe 3.72000 -2.02491 -7.87506
Fe -0.00000 0.00000 -8.59097
Fe -0.00000 2.02491 -7.15914
Fe -1.24000 -0.00000 -6.44323
Fe 1.24000 -0.00000 -6.44323
Fe -2.48000 2.02491 -7.15914
Fe -2.48000 4.04982 -5.72731
Fe -3.72000 2.02491 -5.01140
Fe -1.24000 2.02491 -5.01140
Fe -4.96000 4.04982 -5.72731
Fe -4.96000 6.07473 -4.29549
Fe -6.20000 4.04982 -3.57957
Fe -3.72000 4.04982 -3.57957
Fe -6.20000 6.07473 -2.14774
Fe 6.20000 -2.02491 -7.87506
Fe 4.96000 -0.00000 -8.59097
Fe 4.96000 2.02491 -7.15914
Fe 3.72000 0.00000 -6.44323
Fe 6.20000 -0.00000 -6.44323
Fe 2.48000 2.02491 -7.15914
Fe 2.48000 4.04982 -5.72731
Fe 1.24000 2.02491 -5.01140
Fe 3.72000 2.02491 -5.01140
Fe 0.00000 4.04982 -5.72731
Fe 0.00000 6.07473 -4.29549
Fe -1.24000 4.04982 -3.57957
Fe 1.24000 4.04982 -3.57957
Fe -2.48000 6.07473 -4.29549
Fe -3.72000 6.07473 -2.14774
Fe -1.24000 6.07473 -2.14774
Fe 6.20000 2.02491 -5.01140
Fe 4.96000 4.04982 -5.72731
Fe 4.96000 6.07473 -4.29549
Fe 3.72000 4.04982 -3.57957
Fe 6.20000 4.04982 -3.57957
Fe 2.48000 6.07473 -4.29549
Fe 1.24000 6.07473 -2.14774
Fe 3.72000 6.07473 -2.14774
Fe 6.20000 6.07473 -2.14774
Fe -2.48000 -6.07473 -8.59097
Fe -4.96000 -6.07473 -8.59097
Fe -4.96000 -4.04982 -7.15914
Fe -6.20000 -6.07473 -6.44323
Fe -3.72000 -6.07473 -6.44323
Fe -6.20000 -4.04982 -5.01140
Fe 2.48000 -6.07473 -8.59097
Fe -0.00000 -6.07473 -8.59097
Fe 0.00000 -4.04982 -7.15914
Fe -1.24000 -6.07473 -6.44323
Fe 1.24000 -6.07473 -6.44323
Fe -2.48000 -4.04982 -7.15914
Fe -2.48000 -2.02491 -5.72731
Fe -3.72000 -4.04982 -5.01140
Fe -1.24000 -4.04982 -5.01140
Fe -4.96000 -2.02491 -5.72731
Fe -4.96000 0.00000 -4.29549
Fe -6.20000 -2.02491 -3.57957
Fe -3.72000 -2.02491 -3.57957
Fe -6.20000 0.00000 -2.14774
Fe 4.96000 -6.07473 -8.59097
Fe 4.96000 -4.04982 -7.15914
Fe 3.72000 -6.07473 -6.44323
Fe 6.20000 -6.07473 -6.44323
Fe 2.48000 -4.04982 -7.15914
Fe 2.48000 -2.02491 -5.72731
Fe 1.24000 -4.04982 -5.01140
Fe 3.72000 -4.04982 -5.01140
Fe -0.00000 -2.02491 -5.72731
Fe -0.00000 0.00000 -4.29549
Fe -1.24000 -2.02491 -3.57957
Fe 1.24000 -2.02491 -3.57957
Fe -2.48000 0.00000 -4.29549
Fe -2.48000 2.02491 -2.86366
Fe -3.72000 0.00000 -2.14774
Fe -1.24000 0.00000 -2.14774
Fe -4.96000 2.02491 -2.86366
Fe -4.96000 4.04982 -1.43183
Fe -6.20000 2.02491 -0.71591
Fe -3.72000 2.02491 -0.71591
Fe 6.20000 -4.04982 -5.01140
Fe 4.96000 -2.02491 -5.72731
Fe 4.96000 0.00000 -4.29549
Fe 3.72000 -2.02491 -3.57957
Fe 6.20000 -2.02491 -3.57957
Fe 2.48000 -0.00000 -4.29549
Fe 2.48000 2.02491 -2.86366
Fe 1.24000 -0.00000 -2.14774
Fe 3.72000 -0.00000 -2.14774
Fe 0.00000 2.02491 -2.86366
Fe 0.00000 4.04982 -1.43183
Fe -1.24000 2.02491 -0.71591
Fe 1.24000 2.02491 -0.71591
Fe -2.48000 4.04982 -1.43183
Fe -2.48000 6.07473 -0.00000
Fe -4.96000 6.07473 0.00000
Fe 6.20000 0.00000 -2.14774
Fe 4.96000 2.02491 -2.86366
Fe 4.96000 4.04982 -1.43183
Fe 3.72000 2.02491 -0.71591
Fe 6.20000 2.02491 -0.71591
Fe 2.48000 4.04982 -1.43183
Fe 2.48000 6.07473 -0.00000
Fe 0.00000 6.07473 0.00000
Fe 4.96000 6.07473 -0.00000
Fe -4.96000 -6.07473 -4.29549
Fe -6.20000 -6.07473 -2.14774
Fe 0.00000 -6.07473 -4.29549
Fe -2.48000 -6.07473 -4.29549
Fe -2.48000 -4.04982 -2.86366
Fe -3.72000 -6.07473 -2.14774
Fe -1.24000 -6.07473 -2.14774
Fe -4.96000 -4.04982 -2.86366
Fe -4.96000 -2.02491 -1.43183
Fe -6.20000 -4.04982 -0.71591
Fe -3.72000 -4.04982 -0.71591
Fe 4.96000 -6.07473 -4.29549
Fe 2.48000 -6.07473 -4.29549
Fe 2.48000 -4.04982 -2.86366
Fe 1.24000 -6.07473 -2.14774
Fe 3.72000 -6.07473 -2.14774
Fe -0.00000 -4.04982 -2.86366
Fe -0.00000 -2.02491 -1.43183
Fe -1.24000 -4.04982 -0.71591
Fe 1.24000 -4.04982 -0.71591
Fe -2.48000 -2.02491 -1.43183
Fe -2.48000 0.00000 0.00000
Fe -4.96000 0.00000 0.00000
Fe 6.20000 -6.07473 -2.14774
Fe 4.96000 -4.04982 -2.86366
Fe 4.96000 -2.02491 -1.43183
Fe 3.72000 -4.04982 -0.71591
Fe 6.20000 -4.04982 -0.71591
Fe 2.48000 -2.02491 -1.43183
Fe 2.48000 -0.00000 -0.00000
Fe 0.00000 0.00000 0.00000
Fe 4.96000 -0.00000 -0.00000
Fe -2.48000 -6.07473 0.00000
Fe -4.96000 -6.07473 0.00000
Fe 2.48000 -6.07473 0.00000
Fe -0.00000 -6.07473 -0.00000
Fe 4.96000 -6.07473 -0.00000
N -1.24000 -1.52800 -0.01127
