182
Lattice="29.4000 0 0 0 29.1293 0 0 0 26.0574" Origin="-14.7000 -14.5646 -18.0574" Properties=species:S:1:pos:R:3
Os -6.70000 2.18821 -10.05744
Os -4.02000 2.18821 -10.05744
Os -6.70000 4.37642 -8.51014
Os -1.34000 2.18821 -10.05744
Os 1.34000 2.18821 -10.05744
Os -2.68000 6.56463 -9.28379
Os -4.02000 4.37642 -8.51014
Os -1.34000 4.37642 -8.51014
Os -5.36000 6.56463 -9.28379
Os -6.70000 6.56463 -6.96284
Os -4.02000 6.56463 -6.96284
Os 4.02000 2.18821 -10.05744
Os 6.70000 2.18821 -10.05744
Os 2.68000 6.56463 -9.28379
Os 1.34000 4.37642 -8.51014
Os 4.02000 4.37642 -8.51014
Os 0.00000 6.56463 -9.28379
Os -1.34000 6.56463 -6.96284
Os 1.34000 6.56463 -6.96284
Os 6.70000 4.37642 -8.51014
Os 5.36000 6.56463 -9.28379
Os 4.02000 6.56463 -6.96284
Os 6.70000 6.56463 -6.96284
Os -6.70000 -4.37642 -10.05744
Os -4.02000 -4.37642 -10.05744
Os -6.70000 -2.18821 -8.51014
Os -1.34000 -4.37642 -10.05744
Os 1.34000 -4.37642 -10.05744
Os -2.68000 -0.00000 -9.28379
Os -4.02000 -2.18821 -8.51014
Os -1.34000 -2.18821 -8.51014
Os -5.36000 0.00000 -9.28379
Os -5.36000 2.18821 -7.73649
Os -6.70000 0.00000 -6.96284
Os -4.02000 -0.00000 -6.96284
Os -6.70000 2.18821 -5.41555
Os 4.02000 -4.37642 -10.05744
Os 6.70000 -4.37642 -10.05744
Os 2.68000 0.00000 -9.28379
Os 1.34000 -2.18821 -8.51014
Os 4.02000 -2.18821 -8.51014
Os -0.00000 -0.00000 -9.28379
Os -0.00000 2.18821 -7.73649
Os -1.34000 -0.00000 -6.96284
Os 1.34000 -0.00000 -6.96284
Os -2.68000 2.18821 -7.73649
Os -2.68000 4.37642 -6.18919
Os -4.02000 2.18821 -5.41555
Os -1.34000 2.18821 -5.41555
Os -5.36000 4.37642 -6.18919
Os -5.36000 6.56463 -4.64190
Os -6.70000 4.37642 -3.86825
Os -4.02000 4.37642 -3.86825
Os -6.70000 6.56463 -2.32095
Os 6.70000 -2.18821 -8.51014
Os 5.36000 -0.00000 -9.28379
Os 5.36000 2.18821 -7.73649
Os 4.02000 0.00000 -6.96284
Os 6.70000 -0.00000 -6.96284
Os 2.68000 2.18821 -7.73649
Os 2.68000 4.37642 -6.18919
Os 1.34000 2.18821 -5.41555
Os 4.02000 2.18821 -5.41555
Os 0.00000 4.37642 -6.18919
Os 0.00000 6.56463 -4.64190
Os -1.34000 4.37642 -3.86825
Os 1.34000 4.37642 -3.86825
Os -2.68000 6.56463 -4.64190
Os -4.02000 6.56463 -2.32095
Os -1.34000 6.56463 -2.32095
Os 6.70000 2.18821 -5.41555
Os 5.36000 4.37642 -6.18919
Os 5.36000 6.56463 -4.64190
Os 4.02000 4.37642 -3.86825
Os 6.70000 4.37642 -3.86825
Os 2.68000 6.56463 -4.64190
Os 1.34000 6.56463 -2.32095
Os 4.02000 6.56463 -2.32095
Os 6.70000 6.56463 -2.32095
Os -2.68000 -6.56463 -9.28379
Os -5.36000 -6.56463 -9.28379
Os -5.36000 -4.37642 -7.73649
Os -6.70000 -6.56463 -6.96284
Os -4.02000 -6.56463 -6.96284
Os -6.70000 -4.37642 -5.41555
Os 2.68000 -6.56463 -9.28379
Os -0.00000 -6.56463 -9.28379
Os 0.00000 -4.37642 -7.73649
Os -1.34000 -6.56463 -6.96284
Os 1.34000 -6.56463 -6.96284
Os -2.68000 -4.37642 -7.73649
Os -2.68000 -2.18821 -6.18919
Os -4.02000 -4.37642 -5.41555
Os -1.34000 -4.37642 -5.41555
Os -5.36000 -2.18821 -6.18919
Os -5.36000 -0.00000 -4.64190
Os -6.70000 -2.18821 -3.86825
Os -4.02000 -2.18821 -3.86825
Os -6.70000 0.00000 -2.32095
Os 5.36000 -6.56463 -9.28379
Os 5.36000 -4.37642 -7.73649
Os 4.02000 -6.56463 -6.96284
Os 6.70000 -6.56463 -6.96284
Os 2.68000 -4.37642 -7.73649
Os 2.68000 -2.18821 -6.18919
Os 1.34000 -4.37642 -5.41555
Os 4.02000 -4.37642 -5.41555
Os -0.00000 -2.18821 -6.18919
Os -0.00000 -0.00000 -4.64190
Os -1.34000 -2.18821 -3.86825
Os 1.34000 -2.18821 -3.86825
Os -2.68000 0.00000 -4.64190
Os -2.68000 2.18821 -3.09460
Os -4.02000 0.00000 -2.32095
Os -1.34000 0.00000 -2.32095
Os -5.36000 2.18821 -3.09460
Os -5.36000 4.37642 -1.54730
Os -6.70000 2.18821 -0.77365
Os -4.02000 2.18821 -0.77365
Os 6.70000 -4.37642 -5.41555
Os 5.36000 -2.18821 -6.18919
Os 5.36000 0.00000 -4.64190
Os 4.02000 -2.18821 -3.86825
Os 6.70000 -2.18821 -3.86825
Os 2.68000 -0.00000 -4.64190
Os 2.68000 2.18821 -3.09460
Os 1.34000 -0.00000 -2.32095
Os 4.02000 -0.00000 -2.32095
Os 0.00000 2.18821 -3.09460
Os 0.00000 4.37642 -1.54730
Os -1.34000 2.18821 -0.77365
Os 1.34000 2.18821 -0.77365
Os -2.68000 4.37642 -1.54730
Os -2.68000 6.56463 0.00000
Os -5.36000 6.56463 -0.00000
Os 6.70000 0.00000 -2.32095
Os 5.36000 2.18821 -3.09460
Os 5.36000 4.37642 -1.54730
Os 4.02000 2.18821 -0.77365
Os 6.70000 2.18821 -0.77365
Os 2.68000 4.37642 -1.54730
Os 2.68000 6.56463 -0.00000
Os 0.00000 6.56463 0.00000
Os 5.36000 6.56463 0.00000
Os -5.36000 -6.56463 -4.64190
Os -6.70000 -6.56463 -2.32095
Os 0.00000 -6.56463 -4.64190
Os -2.68000 -6.56463 -4.64190
Os -2.68000 -4.37642 -3.09460
Os -4.02000 -6.56463 -2.32095
Os -1.34000 -6.56463 -2.32095
Os -5.36000 -4.37642 -3.09460
Os -5.36000 -2.18821 -1.54730
Os -6.70000 -4.37642 -0.77365
Os -4.02000 -4.37642 -0.77365
Os 5.36000 -6.56463 -4.64190
Os 2.68000 -6.56463 -4.64190
Os 2.68000 -4.37642 -3.09460
Os 1.34000 -6.56463 -2.32095
Os 4.02000 -6.56463 -2.32095
Os -0.00000 -4.37642 -3.09460
Os -0.00000 -2.18821 -1.54730
Os -1.34000 -4.37642 -0.77365
Os 1.34000 -4.37642 -0.77365
Os -2.68000 -2.18821 -1.54730
Os -2.68000 0.00000 -0.00000
Os -5.36000 0.00000 -0.00000
Os 6.70000 -6.56463 -2.32095
Os 5.36000 -4.37642 -3.09460
Os 5.36000 -2.18821 -1.54730
Os 4.02000 -4.37642 -0.77365
Os 6.70000 -4.37642 -0.77365
Os 2.68000 -2.18821 -1.54730
Os 2.68000 -0.00000 0.00000
Os 0.00000 0.00000 0.00000
Os 5.36000 -0.00000 0.00000
Os -2.68000 -6.56463 0.00000
Os -5.36000 -6.56463 -0.00000
Os 2.68000 -6.56463 -0.00000
Os -0.00000 -6.56463 -0.00000
Os 5.36000 -6.56463 0.00000
N 0.00000 1.83200 0.66804
