182
Lattice="29.2500 0 0 0 28.9823 0 0 0 25.9449" Origin="-14.6250 -14.4911 -17.9449" Properties=species:S:1:pos:R:3
Ru -6.62500 2.16372 -9.94486
Ru -3.97500 2.16372 -9.94486
Ru -6.62500 4.32743 -8.41488
Ru -1.32500 2.16372 -9.94486
Ru 1.32500 2.16372 -9.94486
Ru -2.65000 6.49115 -9.17987
Ru -3.97500 4.32743 -8.41488
Ru -1.32500 4.32743 -8.41488
Ru -5.30000 6.49115 -9.17987
Ru -6.62500 6.49115 -6.88490
Ru -3.97500 6.49115 -6.88490
Ru 3.97500 2.16372 -9.94486
Ru 6.62500 2.16372 -9.94486
Ru 2.65000 6.49115 -9.17987
Ru 1.32500 4.32743 -8.41488
Ru 3.97500 4.32743 -8.41488
Ru 0.00000 6.49115 -9.17987
Ru -1.32500 6.49115 -6.88490
Ru 1.32500 6.49115 -6.88490
Ru 6.62500 4.32743 -8.41488
Ru 5.30000 6.49115 -9.17987
Ru 3.97500 6.49115 -6.88490
Ru 6.62500 6.49115 -6.88490
Ru -6.62500 -4.32743 -9.94486
Ru -3.97500 -4.32743 -9.94486
Ru -6.62500 -2.16372 -8.41488
Ru -1.32500 -4.32743 -9.94486
Ru 1.32500 -4.32743 -9.94486
Ru -2.65000 0.00000 -9.17987
Ru -3.97500 -2.16372 -8.41488
Ru -1.32500 -2.16372 -8.41488
Ru -5.30000 -0.00000 -9.17987
Ru -5.30000 2.16372 -7.64989
Ru -6.62500 -0.00000 -6.88490
Ru -3.97500 0.00000 -6.88490
Ru -6.62500 2.16372 -5.35492
Ru 3.97500 -4.32743 -9.94486
Ru 6.62500 -4.32743 -9.94486
Ru 2.65000 -0.00000 -9.17987
Ru 1.32500 -2.16372 -8.41488
Ru 3.97500 -2.16372 -8.41488
Ru -0.00000 0.00000 -9.17987
Ru -0.00000 2.16372 -7.64989
Ru -1.32500 0.00000 -6.88490
Ru 1.32500 0.00000 -6.88490
Ru -2.65000 2.16372 -7.64989
Ru -2.65000 4.32743 -6.11991
Ru -3.97500 2.16372 -5.35492
Ru -1.32500 2.16372 -5.35492
Ru -5.30000 4.32743 -6.11991
Ru -5.30000 6.49115 -4.58993
Ru -6.62500 4.32743 -3.82495
Ru -3.97500 4.32743 -3.82495
Ru -6.62500 6.49115 -2.29497
Ru 6.62500 -2.16372 -8.41488
Ru 5.30000 0.00000 -9.17987
Ru 5.30000 2.16372 -7.64989
Ru 3.97500 -0.00000 -6.88490
Ru 6.62500 0.00000 -6.88490
Ru 2.65000 2.16372 -7.64989
Ru 2.65000 4.32743 -6.11991
Ru 1.32500 2.16372 -5.35492
Ru 3.97500 2.16372 -5.35492
Ru 0.00000 4.32743 -6.11991
Ru 0.00000 6.49115 -4.58993
Ru -1.32500 4.32743 -3.82495
Ru 1.32500 4.32743 -3.82495
Ru -2.65000 6.49115 -4.58993
Ru -3.97500 6.49115 -2.29497
Ru -1.32500 6.49115 -2.29497
Ru 6.62500 2.16372 -5.35492
Ru 5.30000 4.32743 -6.11991
Ru 5.30000 6.49115 -4.58993
Ru 3.97500 4.32743 -3.82495
Ru 6.62500 4.32743 -3.82495
Ru 2.65000 6.49115 -4.58993
Ru 1.32500 6.49115 -2.29497
Ru 3.97500 6.49115 -2.29497
Ru 6.62500 6.49115 -2.29497
Ru -2.65000 -6.49115 -9.17987
Ru -5.30000 -6.49115 -9.17987
Ru -5.30000 -4.32743 -7.64989
Ru -6.62500 -6.49115 -6.88490
Ru -3.97500 -6.49115 -6.88490
Ru -6.62500 -4.32743 -5.35492
Ru 2.65000 -6.49115 -9.17987
Ru -0.00000 -6.49115 -9.17987
Ru -0.00000 -4.32743 -7.64989
Ru -1.32500 -6.49115 -6.88490
Ru 1.32500 -6.49115 -6.88490
Ru -2.65000 -4.32743 -7.64989
Ru -2.65000 -2.16372 -6.11991
Ru -3.97500 -4.32743 -5.35492
Ru -1.32500 -4.32743 -5.35492
Ru -5.30000 -2.16372 -6.11991
Ru -5.30000 -0.00000 -4.58993
Ru -6.62500 -2.16372 -3.82495
Ru -3.97500 -2.16372 -3.82495
Ru -6.62500 -0.00000 -2.29497
Ru 5.30000 -6.49115 -9.17987
Ru 5.30000 -4.32743 -7.64989
Ru 3.97500 -6.49115 -6.88490
Ru 6.62500 -6.49115 -6.88490
Ru 2.65000 -4.32743 -7.64989
Ru 2.65000 -2.16372 -6.11991
Ru 1.32500 -4.32743 -5.35492
Ru 3.97500 -4.32743 -5.35492
Ru -0.00000 -2.16372 -6.11991
Ru -0.00000 0.00000 -4.58993
Ru -1.32500 -2.16372 -3.82495
Ru 1.32500 -2.16372 -3.82495
Ru -2.65000 -0.00000 -4.58993
Ru -2.65000 2.16372 -3.05996
Ru -3.97500 -0.00000 -2.29497
Ru -1.32500 -0.00000 -2.29497
Ru -5.30000 2.16372 -3.05996
Ru -5.30000 4.32743 -1.52998
Ru -6.62500 2.16372 -0.76499
Ru -3.97500 2.16372 -0.76499
Ru 6.62500 -4.32743 -5.35492
Ru 5.30000 -2.16372 -6.11991
Ru 5.30000 -0.00000 -4.58993
Ru 3.97500 -2.16372 -3.82495
Ru 6.62500 -2.16372 -3.82495
Ru 2.65000 0.00000 -4.58993
Ru 2.65000 2.16372 -3.05996
Ru 1.32500 0.00000 -2.29497
Ru 3.97500 0.00000 -2.29497
Ru 0.00000 2.16372 -3.05996
Ru 0.00000 4.32743 -1.52998
Ru -1.32500 2.16372 -0.76499
Ru 1.32500 2.16372 -0.76499
Ru -2.65000 4.32743 -1.52998
Ru -2.65000 6.49115 0.00000
Ru -5.30000 6.49115 -0.00000
Ru 6.62500 -0.00000 -2.29497
Ru 5.30000 2.16372 -3.05996
Ru 5.30000 4.32743 -1.52998
Ru 3.97500 2.16372 -0.76499
Ru 6.62500 2.16372 -0.76499
Ru 2.65000 4.32743 -1.52998
Ru 2.65000 6.49115 -0.00000
Ru 0.00000 6.49115 0.00000
Ru 5.30000 6.49115 0.00000
Ru -5.30000 -6.49115 -4.58993
Ru -6.62500 -6.49115 -2.29497
Ru -0.00000 -6.49115 -4.58993
Ru -2.65000 -6.49115 -4.58993
Ru -2.65000 -4.32743 -3.05996
Ru -3.97500 -6.49115 -2.29497
Ru -1.32500 -6.49115 -2.29497
Ru -5.30000 -4.32743 -3.05996
Ru -5.30000 -2.16372 -1.52998
Ru -6.62500 -4.32743 -0.76499
Ru -3.97500 -4.32743 -0.76499
Ru 5.30000 -6.49115 -4.58993
Ru 2.65000 -6.49115 -4.58993
Ru 2.65000 -4.32743 -3.05996
Ru 1.32500 -6.49115 -2.29497
Ru 3.97500 -6.49115 -2.29497
Ru -0.00000 -4.32743 -3.05996
Ru -0.00000 -2.16372 -1.52998
Ru -1.32500 -4.32743 -0.76499
Ru 1.32500 -4.32743 -0.76499
Ru -2.65000 -2.16372 -1.52998
Ru -2.65000 -0.00000 -0.00000
Ru -5.30000 -0.00000 -0.00000
Ru 6.62500 -6.49115 -2.29497
Ru 5.30000 -4.32743 -3.05996
Ru 5.30000 -2.16372 -1.52998
Ru 3.97500 -4.32743 -0.76499
Ru 6.62500 -4.32743 -0.76499
Ru 2.65000 -2.16372 -1.52998
Ru 2.65000 0.00000 0.00000
Ru 0.00000 0.00000 0.00000
Ru 5.30000 0.00000 0.00000
Ru -2.65000 -6.49115 0.00000
Ru -5.30000 -6.49115 -0.00000
Ru 2.65000 -6.49115 -0.00000
Ru -0.00000 -6.49115 -0.00000
Ru 5.30000 -6.49115 0.00000
N -1.33000 -1.44000 -0.29049
